
Gurobi 10.0.1 (linux64) logging started Sun Nov 26 15:46:26 2023

Set parameter LogFile to value "ArtificialInstance/ExperimentV2/S2T3K2/BaSp/gurobi91.txt"
Gurobi Optimizer version 10.0.1 build v10.0.1rc0 (linux64)

CPU model: AMD EPYC 7H12 64-Core Processor, instruction set [SSE2|AVX|AVX2]
Thread count: 128 physical cores, 128 logical processors, using up to 32 threads

Academic license 656792 - for non-commercial use only - registered to b.___@student.vu.nl
Optimize a model with 1420 rows, 2160 columns and 7040 nonzeros
Model fingerprint: 0xa841b936
Variable types: 0 continuous, 2160 integer (2160 binary)
Coefficient statistics:
  Matrix range     [1e+00, 1e+00]
  Objective range  [2e+00, 2e+01]
  Bounds range     [1e+00, 1e+00]
  RHS range        [1e+00, 1e+00]
Found heuristic solution: objective 641.0328958
Presolve time: 0.01s
Presolved: 1420 rows, 2160 columns, 7040 nonzeros
Variable types: 0 continuous, 2160 integer (2160 binary)

Root relaxation: objective 3.411118e+01, 1100 iterations, 0.02 seconds (0.02 work units)

    Nodes    |    Current Node    |     Objective Bounds      |     Work
 Expl Unexpl |  Obj  Depth IntInf | Incumbent    BestBd   Gap | It/Node Time

     0     0   34.11118    0  240  641.03290   34.11118  94.7%     -    0s
H    0     0                     224.2971040   34.11118  84.8%     -    0s
H    0     0                     218.4127334   34.11118  84.4%     -    0s
H    0     0                     113.3043422   34.11118  69.9%     -    0s
H    0     0                      64.0000571   34.11118  46.7%     -    0s
H    0     0                      50.8755422   38.30901  24.7%     -    0s
     0     0   38.30901    0  302   50.87554   38.30901  24.7%     -    0s
     0     0   42.91415    0  348   50.87554   42.91415  15.6%     -    0s
H    0     0                      49.1658088   42.91415  12.7%     -    0s
H    0     0                      47.2483566   44.26747  6.31%     -    0s
     0     0   44.26747    0  369   47.24836   44.26747  6.31%     -    0s
     0     0   44.34005    0  332   47.24836   44.34005  6.16%     -    0s
     0     0   44.35767    0  363   47.24836   44.35767  6.12%     -    0s
     0     0   44.35767    0  365   47.24836   44.35767  6.12%     -    0s
     0     0   44.54822    0  403   47.24836   44.54822  5.71%     -    0s
     0     0   44.54822    0  225   47.24836   44.54822  5.71%     -    0s
     0     0   44.54822    0  288   47.24836   44.54822  5.71%     -    0s
     0     0   44.54822    0  331   47.24836   44.54822  5.71%     -    0s
     0     0   44.55827    0  331   47.24836   44.55827  5.69%     -    0s
     0     0   44.55827    0  332   47.24836   44.55827  5.69%     -    0s
     0     0   44.99887    0  400   47.24836   44.99887  4.76%     -    0s
     0     0   45.00568    0  404   47.24836   45.00568  4.75%     -    0s
     0     0   45.00693    0  389   47.24836   45.00693  4.74%     -    0s
     0     0   47.24836    0  370   47.24836   47.24836  0.00%     -    0s

Cutting planes:
  Gomory: 7
  Clique: 1
  Zero half: 78
  RLT: 21

Explored 1 nodes (6493 simplex iterations) in 0.70 seconds (0.35 work units)
Thread count was 32 (of 128 available processors)

Solution count 8: 47.2484 49.1658 50.8755 ... 641.033

Optimal solution found (tolerance 1.00e-04)
Best objective 4.724835660588e+01, best bound 4.724835660588e+01, gap 0.0000%
